c 38_3_checker_5cl.cnf
c
c field = 38
c formula set type = 3_checker_5cl
c
p cnf 5 12
14 
44 
104 
-135 
-164 
15 
45 
105 
-134 
-165 
44 
104 
134 
-15 
-164 
45 
105 
135 
-14 
-165 
10 
42 
106 
-139 
-170 
11 
43 
107 
-138 
-171 
42 
106 
138 
-11 
-170 
43 
107 
139 
-10 
-171 
18 
46 
102 
-131 
-158 
19 
47 
103 
-130 
-159 
46 
102 
130 
-19 
-158 
47 
103 
131 
-18 
-159 
